3 100 1107
3 4 4 4 7 6 3 5 4 4
4 1 2
2 6 9 5
7
6 9
0 35.0 35.0 0.0 0.0 0 230
2 41.0 49.0 10.0 10.0 161 171 45 0 1 1 0 1 0 0 0 0 1
3 35.0 17.0 10.0 7.0 50 60 99 0 0 0 1 1 0 1 0 0 0
4 55.0 45.0 10.0 13.0 116 126 61 0 0 0 0 0 0 0 1 0 1
5 55.0 20.0 10.0 19.0 149 159 79 0 0 0 0 0 1 0 0 1 0
6 15.0 30.0 10.0 26.0 34 44 84 0 1 0 0 0 0 1 0 0 0
7 25.0 30.0 10.0 3.0 99 109 20 0 0 0 0 0 0 1 0 0 0
8 20.0 50.0 10.0 5.0 81 91 60 0 0 1 0 0 0 0 1 0 1
9 10.0 43.0 10.0 9.0 95 105 25 0 0 0 1 0 0 0 0 0 0
10 55.0 60.0 10.0 16.0 97 107 39 0 0 0 1 1 1 0 0 0 1
11 30.0 60.0 10.0 16.0 124 134 79 0 0 0 0 0 0 0 0 0 1
12 20.0 65.0 10.0 12.0 67 77 55 0 0 1 0 0 1 0 0 0 0
13 50.0 35.0 10.0 19.0 63 73 28 0 0 1 0 0 0 0 0 0 1
14 30.0 25.0 10.0 23.0 159 169 46 0 1 0 0 1 0 0 0 0 0
15 15.0 10.0 10.0 20.0 32 42 67 0 1 1 1 0 0 0 0 0 0
16 30.0 5.0 10.0 8.0 61 71 45 0 0 1 0 1 0 0 0 0 0
17 10.0 20.0 10.0 19.0 75 85 79 0 0 0 1 0 0 0 1 0 0
18 5.0 30.0 10.0 2.0 157 167 84 0 0 0 0 0 1 0 0 0 0
19 20.0 40.0 10.0 12.0 87 97 95 0 0 0 0 0 0 0 1 0 0
20 15.0 60.0 10.0 17.0 76 86 87 0 1 0 0 0 0 0 0 0 0
21 45.0 65.0 10.0 9.0 126 136 39 0 0 0 1 1 0 0 1 1 0
22 45.0 20.0 10.0 11.0 62 72 26 0 0 0 0 1 0 0 1 1 0
23 45.0 10.0 10.0 18.0 97 107 58 0 1 0 0 1 0 0 0 0 0
24 55.0 5.0 10.0 29.0 68 78 52 0 0 0 0 1 0 0 0 0 0
25 65.0 35.0 10.0 3.0 153 163 84 0 1 0 0 0 1 0 0 0 0
26 65.0 20.0 10.0 6.0 172 182 73 0 0 0 0 0 1 0 0 0 0
27 45.0 30.0 10.0 17.0 132 142 85 0 0 1 0 1 0 0 0 1 0
28 35.0 40.0 10.0 16.0 37 47 61 0 1 0 0 0 0 0 0 0 0
29 41.0 37.0 10.0 16.0 39 49 7 0 0 0 0 0 1 0 0 0 0
30 64.0 42.0 10.0 9.0 63 73 6 0 1 0 1 0 0 0 0 0 0
31 40.0 60.0 10.0 21.0 71 81 44 1 0 0 0 1 1 0 0 0 0
32 31.0 52.0 10.0 27.0 50 60 97 0 0 1 0 1 0 1 0 0 0
33 35.0 69.0 10.0 23.0 141 151 90 0 0 0 0 0 0 0 0 1 0
34 53.0 52.0 10.0 11.0 37 47 95 0 0 0 0 0 0 0 1 0 0
35 65.0 55.0 10.0 14.0 117 127 19 0 0 0 0 0 1 0 0 0 0
36 63.0 65.0 10.0 8.0 143 153 91 0 0 0 1 0 0 0 0 0 0
37 2.0 60.0 10.0 5.0 41 51 10 1 0 0 0 0 0 0 0 0 0
38 20.0 20.0 10.0 8.0 134 144 74 0 0 0 0 0 1 0 0 0 0
39 5.0 5.0 10.0 16.0 83 93 38 0 0 0 0 1 0 0 0 1 0
40 60.0 12.0 10.0 31.0 44 54 3 0 0 0 0 0 1 0 1 0 0
41 40.0 25.0 10.0 9.0 85 95 16 0 1 0 0 1 0 0 0 0 0
42 42.0 7.0 10.0 5.0 97 107 93 0 0 0 0 0 0 0 0 1 0
43 24.0 12.0 10.0 5.0 31 41 1 1 0 0 0 0 0 0 0 1 0
44 23.0 3.0 10.0 7.0 132 142 37 0 0 1 0 0 1 0 0 0 0
45 11.0 14.0 10.0 18.0 69 79 28 0 0 0 0 0 0 0 0 1 0
46 6.0 38.0 10.0 16.0 32 42 1 0 0 0 0 0 0 0 0 0 1
47 2.0 48.0 10.0 1.0 117 127 34 0 0 0 0 0 1 0 0 0 0
48 8.0 56.0 10.0 27.0 51 61 94 0 0 0 0 0 0 1 1 0 0
49 13.0 52.0 10.0 36.0 165 175 70 0 1 0 0 0 0 0 0 0 0
50 6.0 68.0 10.0 30.0 108 118 56 0 0 0 0 0 1 0 0 0 0
51 47.0 47.0 10.0 13.0 124 134 83 0 0 1 0 0 0 1 0 0 0
52 49.0 58.0 10.0 10.0 88 98 15 0 0 0 0 0 1 0 0 0 0
53 27.0 43.0 10.0 9.0 52 62 66 1 1 0 1 0 0 0 0 0 0
54 37.0 31.0 10.0 14.0 95 105 14 0 0 0 0 0 1 0 0 0 1
55 57.0 29.0 10.0 18.0 140 150 51 0 0 0 0 0 0 0 0 0 1
56 63.0 23.0 10.0 2.0 136 146 82 0 0 0 0 0 0 0 1 0 0
57 53.0 12.0 10.0 6.0 130 140 63 0 0 0 0 0 1 0 1 0 0
58 32.0 12.0 10.0 7.0 101 111 21 0 1 0 0 1 0 0 0 0 0
59 36.0 26.0 10.0 18.0 200 210 49 0 0 0 0 0 1 0 0 0 0
60 21.0 24.0 10.0 28.0 18 28 44 0 0 0 0 0 1 0 0 0 0
61 17.0 34.0 10.0 3.0 162 172 36 0 0 0 0 1 0 0 0 1 1
62 12.0 24.0 10.0 13.0 76 86 52 0 0 0 1 0 0 0 0 0 1
63 24.0 58.0 10.0 19.0 58 68 82 0 1 0 1 0 1 0 1 0 1
64 27.0 69.0 10.0 10.0 34 44 66 0 0 0 1 0 0 0 0 0 1
65 15.0 77.0 10.0 9.0 73 83 65 0 0 0 0 0 0 1 0 0 1
66 62.0 77.0 10.0 20.0 51 61 2 1 0 0 1 1 1 1 0 0 0
67 49.0 73.0 10.0 25.0 127 137 73 0 0 0 0 0 1 0 0 0 0
68 67.0 5.0 10.0 25.0 83 93 14 1 0 0 0 0 0 0 0 1 1
69 56.0 39.0 10.0 36.0 142 152 85 0 0 0 0 0 0 1 0 0 0
70 37.0 47.0 10.0 6.0 50 60 97 0 0 1 0 0 0 0 1 0 0
71 37.0 56.0 10.0 5.0 182 192 80 0 1 0 0 0 0 0 0 0 0
72 57.0 68.0 10.0 15.0 77 87 18 0 0 0 0 0 0 0 0 0 1
73 47.0 16.0 10.0 25.0 35 45 45 0 0 0 0 0 0 0 0 0 1
74 44.0 17.0 10.0 9.0 78 88 33 1 0 1 0 0 1 0 1 1 1
75 46.0 13.0 10.0 8.0 149 159 57 0 0 0 1 0 0 0 1 0 0
76 49.0 11.0 10.0 18.0 69 79 15 0 0 0 0 0 0 0 0 1 0
77 49.0 42.0 10.0 13.0 73 83 24 0 0 1 0 0 0 0 0 0 0
78 53.0 43.0 10.0 14.0 179 189 63 0 1 0 0 0 1 0 0 0 0
79 61.0 52.0 10.0 3.0 96 106 42 0 0 0 0 0 0 0 1 0 0
80 57.0 48.0 10.0 23.0 92 102 35 1 0 0 0 0 1 0 0 0 0
81 56.0 37.0 10.0 6.0 182 192 25 1 0 0 0 0 0 0 0 0 0
82 55.0 54.0 10.0 26.0 94 104 78 0 0 0 0 1 0 0 0 0 0
83 15.0 47.0 10.0 16.0 55 65 63 0 0 0 1 0 1 1 0 0 0
84 14.0 37.0 10.0 11.0 44 54 29 0 1 1 0 0 0 0 1 0 0
85 11.0 31.0 10.0 7.0 101 111 7 0 0 0 0 0 0 1 0 1 0
86 16.0 22.0 10.0 41.0 91 101 77 0 0 0 1 1 1 1 0 0 0
87 4.0 18.0 10.0 35.0 94 104 79 1 0 0 0 0 0 0 0 0 0
88 28.0 18.0 10.0 26.0 93 103 47 0 0 1 0 0 0 0 0 0 0
89 26.0 52.0 10.0 9.0 74 84 67 0 0 0 1 0 1 0 0 0 0
90 26.0 35.0 10.0 15.0 176 186 41 0 0 0 0 1 0 0 1 0 1
91 31.0 67.0 10.0 3.0 95 105 62 0 0 0 1 1 0 0 0 0 0
92 15.0 19.0 10.0 1.0 160 170 42 1 0 0 0 0 0 0 0 0 0
93 22.0 22.0 10.0 2.0 18 28 9 0 0 1 0 1 1 0 1 0 0
94 18.0 24.0 10.0 22.0 188 198 46 0 0 1 0 1 0 0 0 0 0
95 26.0 27.0 10.0 27.0 100 110 14 1 0 1 0 0 0 0 0 0 0
96 25.0 24.0 10.0 20.0 39 49 2 1 0 0 0 0 1 0 0 1 0
97 22.0 27.0 10.0 11.0 135 145 97 0 0 0 0 0 1 0 0 0 0
98 25.0 21.0 10.0 12.0 133 143 69 0 0 0 0 1 0 0 1 0 0
99 19.0 21.0 10.0 10.0 58 68 36 0 0 0 1 0 0 0 0 0 1
100 20.0 26.0 10.0 9.0 83 93 61 0 0 1 1 0 0 0 0 0 0
101 18.0 18.0 10.0 17.0 185 195 93 0 0 0 0 0 1 0 0 0 0